Maximize

29.5 b0 + 15.5 b1 + 48.5 b2 + 7 b3 + 15 b4.v0 + 15 b4.v1 + 10 b5 + 19.5 b6.v0 + 19.5 b6.v1 + 19.5 b6.v2 + 19.5 b6.v3 + 15.5 b6.v4 + 15.5 b6.v5 + 15.5 b6.v6 + 33.0 b7 + 6 b8 + 22.5 b9 + 50.5 b10 + 22.5 b11 + 9 b12 + 18.5 b13.v0 + 18.5 b13.v1 + 19.5 b14 + 8 b15 + 18 b16.v0 + 18 b16.v1 + 10 b17 + 14 b18 + 18.5 b19.v0 + 18.5 b19.v1 + 19.5 b20 + 20.5 b21 + 18 b22.v0 + 18 b22.v1 + 10 b23 + 14 b24 + 18.5 b25.v0 + 18.5 b25.v1 + 13.5 b26 + 12.5 x4_0.m + 12.5 x5_0.m + 12.5 x12_0.m + 12.5 x16_0.m + 12.5 x18_0.m + 12.5 x22_0.m + 12.5 x24_0.m + 12.5 dr4_0.m + 12.5 dr5_0.m + 12.5 dr12_0.m + 12.5 dr16_0.m + 12.5 dr17_0.m + 12.5 dr18_0.m + 12.5 dr18_1.m + 12.5 dr22_0.m + 12.5 dr23_0.m + 12.5 dr24_0.m + 12.5 dr24_1.m


Subject to

\ === tcfg constraints ===
dSta_0 = 1
b0 - dSta_0 = 0
b0 - d0_1 = 0
b1 - d0_1 = 0
b1 - d1_2 = 0
b2 - d1_2 = 0
b2 - d2_14 - d2_3 = 0
b3 - d2_3 = 0
b3 - d3_13 - d3_4 = 0
b4 - d12_4 - d3_4 = 0
b4 - d4_12 - d4_5 = 0
b5 - d4_5 = 0
b5 - d5_6 = 0
b6 - d13_6 - d19_6 - d25_6 - d26_6 - d5_6 - d17_6 - d23_6 = 0
b6 - d6_7 = 0
b7 - d6_7 = 0
b7 - d7_10 - d7_8 = 0
b8 - d7_8 = 0
b8 - d8_9 = 0
b9 - d8_9 = 0
b10 - d7_10 = 0
b10 - d10_11 = 0
b11 - d10_11 = 0
b12 - d4_12 = 0
b12 - d12_4 - d12_13 = 0
b13 - d12_13 - d3_13 = 0
b13 - d13_6 = 0
b14 - d2_14 = 0
b14 - d14_20 - d14_15 = 0
b15 - d14_15 = 0
b15 - d15_19 - d15_16 = 0
b16 - d18_16 - d15_16 = 0
b16 - d16_18 - d16_17 = 0
b17 - d16_17 = 0
b17 - d17_6 = 0
b18 - d16_18 = 0
b18 - d18_16 - d18_19 = 0
b19 - d18_19 - d15_19 = 0
b19 - d19_6 = 0
b20 - d14_20 = 0
b20 - d20_26 - d20_21 = 0
b21 - d20_21 = 0
b21 - d21_25 - d21_22 = 0
b22 - d24_22 - d21_22 = 0
b22 - d22_24 - d22_23 = 0
b23 - d22_23 = 0
b23 - d23_6 = 0
b24 - d22_24 = 0
b24 - d24_22 - d24_25 = 0
b25 - d24_25 - d21_25 = 0
b25 - d25_6 = 0
b26 - d20_26 = 0
b26 - d26_6 = 0


\ === header constraints ===
b4 - 6 d3_4 <= 0
b16 - 6 d15_16 <= 0
b22 - 6 d21_22 <= 0


\ === context constraints ===
b4 - b4.v0 - b4.v1 = 0
b4.v0 - d12_4 = 0
b4.v1 - d3_4 = 0
b6 - b6.v0 - b6.v1 - b6.v2 - b6.v3 - b6.v4 - b6.v5 - b6.v6 = 0
b6.v0 - d13_6 = 0
b6.v1 - d19_6 = 0
b6.v2 - d25_6 = 0
b6.v3 - d26_6 = 0
b6.v4 - d5_6 = 0
b6.v5 - d17_6 = 0
b6.v6 - d23_6 = 0
b13 - b13.v0 - b13.v1 = 0
b13.v0 - d12_13 = 0
b13.v1 - d3_13 = 0
b16 - b16.v0 - b16.v1 = 0
b16.v0 - d18_16 = 0
b16.v1 - d15_16 = 0
b19 - b19.v0 - b19.v1 = 0
b19.v0 - d18_19 = 0
b19.v1 - d15_19 = 0
b22 - b22.v0 - b22.v1 = 0
b22.v0 - d24_22 = 0
b22.v1 - d21_22 = 0
b25 - b25.v0 - b25.v1 = 0
b25.v0 - d24_25 = 0
b25.v1 - d21_25 = 0


\ === inst cache constraints ===
b4 - x4_0.h - x4_0.m = 0
x4_0.m <= 1
b5 - x5_0.h - x5_0.m = 0
x5_0.m <= 1
b12 - x12_0.h - x12_0.m = 0
x12_0.m <= 1
b16 - x16_0.h - x16_0.m = 0
x16_0.m <= 1
b18 - x18_0.h - x18_0.m = 0
x18_0.m <= 1
b22 - x22_0.h - x22_0.m = 0
x22_0.m <= 1
b24 - x24_0.h - x24_0.m = 0
x24_0.m <= 1


\ === data cache constraints ===
b4 - dr4_0.h - dr4_0.m = 0
dr4_0.m <= 1
b5 - dr5_0.h - dr5_0.m = 0
dr5_0.m <= 1
b12 - dr12_0.h - dr12_0.m = 0
dr12_0.m <= 1
b16 - dr16_0.h - dr16_0.m = 0
dr16_0.m <= 1
b17 - dr17_0.h - dr17_0.m = 0
dr17_0.m <= 1
b18 - dr18_0.h - dr18_0.m = 0
dr18_0.m <= 1
b18 - dr18_1.h - dr18_1.m = 0
dr18_1.m <= 1
b22 - dr22_0.h - dr22_0.m = 0
dr22_0.m <= 1
b23 - dr23_0.h - dr23_0.m = 0
dr23_0.m <= 1
b24 - dr24_0.h - dr24_0.m = 0
dr24_0.m <= 1
b24 - dr24_1.h - dr24_1.m = 0
dr24_1.m <= 1


\ === infeasible path constraints ===
x0 <= 1
x1 <= 1
x2 <= 1
x0 + x1 + x2 <= 2
d25_6 - 99999 x0 <= 0
d6_7 - 99999 x1 <= 0
d7_10 - 99999 x2 <= 0


Generals
x0
x1
x2


b0
b1
b2
b3
b4
b4.v0
b4.v1
b5
b6
b6.v0
b6.v1
b6.v2
b6.v3
b6.v4
b6.v5
b6.v6
b7
b8
b9
b10
b11
b12
b13
b13.v0
b13.v1
b14
b15
b16
b16.v0
b16.v1
b17
b18
b19
b19.v0
b19.v1
b20
b21
b22
b22.v0
b22.v1
b23
b24
b25
b25.v0
b25.v1
b26
d0_1
d1_2
d2_3
d2_14
d3_4
d3_13
d4_5
d4_12
d5_6
d6_7
d7_8
d7_10
d8_9
d10_11
d12_4
d12_13
d13_6
d14_15
d14_20
d15_16
d15_19
d16_17
d16_18
d17_6
d18_16
d18_19
d19_6
d20_21
d20_26
d21_22
d21_25
d22_23
d22_24
d23_6
d24_22
d24_25
d25_6
d26_6
dSta_0
dr4_0.h
dr4_0.m
dr5_0.h
dr5_0.m
dr12_0.h
dr12_0.m
dr16_0.h
dr16_0.m
dr17_0.h
dr17_0.m
dr18_0.h
dr18_0.m
dr18_1.h
dr18_1.m
dr22_0.h
dr22_0.m
dr23_0.h
dr23_0.m
dr24_0.h
dr24_0.m
dr24_1.h
dr24_1.m
x4_0.h
x4_0.m
x5_0.h
x5_0.m
x12_0.h
x12_0.m
x16_0.h
x16_0.m
x18_0.h
x18_0.m
x22_0.h
x22_0.m
x24_0.h
x24_0.m


End
\ total cons: 144    total vars: 121